10
0 10 14 18 16 20 24 22 26 28
10 0 12 16 14 18 22 20 24 26
14 12 0 10 12 16 20 18 22 24
18 16 10 0 8 12 16 14 18 20
16 14 12 8 0 10 14 12 16 18
20 18 16 12 10 0 8 10 14 16
24 22 20 16 14 8 0 12 16 18
22 20 18 14 12 10 12 0 10 14
26 24 22 18 16 14 16 10 0 8
28 26 24 20 18 16 18 14 8 0
0 0 280 0
1 12 95 4
2 20 105 5
3 28 115 4
4 36 125 6
5 44 135 5
6 52 145 4
7 60 155 5
8 68 165 6
9 76 175 4
